CUST NO.,LATITUDE,LONGITUDE,DEMAND,FROM TIME,TO TIME,SERVICE TIME
0,35.19807886,137.0112822,0,2000/1/1 9:00:00,2000/1/1 17:00:00,0
158,35.19585887,136.9594953,150,2000/1/1 9:00:00,2000/1/1 17:00:00,1
160,35.19558762,136.9589659,150,2000/1/1 9:00:00,2000/1/1 17:00:00,1
162,35.19658909,136.9613126,150,2000/1/1 9:00:00,2000/1/1 17:00:00,1
255,35.19625327,136.9826031,2,2000/1/1 9:00:00,2000/1/1 17:00:00,1
256,35.19625327,136.9826031,1,2000/1/1 9:00:00,2000/1/1 17:00:00,1
